DATASET = "thpack3";
INSTANCE = "025";

WIDTH = 233;
HEIGHT = 220;
LENGTH = 587;

NO_OF_SHAPES = 8;
size = [|
  75,54,35 |
  107,60,49 |
  70,67,42 |
  78,71,44 |
  78,61,27 |
  78,73,48 |
  109,87,32 |
  91,87,25 |
|];

verticality = [|
  0,1,1 |
  0,1,1 |
  1,1,1 |
  1,1,1 |
  0,0,1 |
  1,1,1 |
  0,0,1 |
  0,0,1 |
|];

box_count = [
  21,
  20,
  13,
  12,
  20,
  20,
  13,
  16,
];
